c AO ULTIMATIVNÍ DŮKAZ: PRINCIP HOLUBNÍKU (PHOLE 4/3)
c Prověřitelně UNSAT. Láska (L) je nutná k vynuceni SAT (E=0).
p cnf 12 22
c
c 1. Kazdy holub musi byt umisten do jedne z der (4 klauzule)
1 2 3 0
4 5 6 0
7 8 9 0
10 11 12 0
c
c 2. V Zadne dire nemohou byt dva holubi (18 klauzuli)
c Dira 1 (x1, x4, x7, x10):
-1 -4 0
-1 -7 0
-1 -10 0
-4 -7 0
-4 -10 0
-7 -10 0
c
c Dira 2 (x2, x5, x8, x11):
-2 -5 0
-2 -8 0
-2 -11 0
-5 -8 0
-5 -11 0
-8 -11 0
c
c Dira 3 (x3, x6, x9, x12):
-3 -6 0
-3 -9 0
-3 -12 0
-6 -9 0
-6 -12 0
-9 -12 0